c NeuroCodeBench 2.0 CNF formula with verdict Unsat
p cnf 8 48
-1 -6 -7 3 8 -5 0
-1 6 -3 5 8 0
1 4 -2 -7 5 3 0
-1 6 3 5 -8 4 -7 0
-1 6 3 5 -8 -4 0
-1 -6 7 -8 5 -2 4 0
1 4 2 0
-1 -6 -7 3 -8 0
-1 -6 7 8 4 2 0
-1 6 3 -5 0
1 -4 3 6 -7 0
-1 6 3 5 8 2 -7 -4 0
-1 6 3 5 8 -2 -4 -7 0
-1 6 3 5 8 -2 4 7 0
1 4 -2 -7 -5 6 -8 0
-1 6 -3 5 -8 2 -4 0
1 4 -2 -7 5 -3 6 8 0
-1 6 3 5 -8 4 7 0
1 -4 -3 -2 0
-1 6 -3 -5 8 0
1 4 -2 -7 -5 -6 0
-1 -6 7 8 4 -2 0
-1 -6 -7 -3 -4 0
1 -4 3 6 7 0
1 -4 -3 2 8 0
-1 6 3 5 8 2 -7 4 0
-1 6 -3 5 -8 -2 0
-1 -6 7 -8 5 2 -3 0
-1 6 3 5 8 -2 -4 7 0
-1 -6 -7 3 8 5 0
-1 -6 7 -8 -5 0
-1 -6 7 -8 5 2 3 0
1 4 -2 7 5 0
1 4 -2 -7 5 -3 6 -8 0
1 4 -2 -7 5 -3 -6 0
-1 -6 7 -8 5 -2 -4 -3 0
-1 6 -3 -5 -8 0
-1 -6 7 -8 5 -2 -4 3 0
-1 6 3 5 8 2 7 0
-1 6 -3 5 -8 2 4 0
1 -4 -3 2 -8 0
-1 6 3 5 8 -2 4 -7 0
1 4 -2 -7 -5 6 8 -3 0
1 -4 3 -6 0
-1 -6 7 8 -4 0
1 4 -2 -7 -5 6 8 3 0
-1 -6 -7 -3 4 0
1 4 -2 7 -5 0
